100
32
3
20
27
27
17
6
29
1
8
8
7
25
9
2
16
4
1
3
1
1
1
2
1
2
18
4
5
22
3
5
23
1
27
1
2
2
2
1
4
1
1
2
2
8
20
20
1
1
1
23
3
1
4
1
29
2
3
1
1
17
2
1
2
3
1
5
1
2
2
3
1
21
3
3
1
1
18
2
4
1
3
1
1
2
17
3
1
4
17
2
3
2
1
3
3
1
2
1
2
1